\ENCODING=ISO-8859-1
\Problem name: instances

Maximize
 obj:
Subject To
 c1: 184 x1 + 956 x2 + 524 x3 + 373 x4 + 541 x5 + 220 x6 + 512 x7 + 394 x8
     + 791 x9 + 420 x10 <= 2457
Bounds
 0 <= x1 <= 1
 0 <= x2 <= 1
 0 <= x3 <= 1
 0 <= x4 <= 1
 0 <= x5 <= 1
 0 <= x6 <= 1
 0 <= x7 <= 1
 0 <= x8 <= 1
 0 <= x9 <= 1
 0 <= x10 <= 1
Binaries
 x1  x2  x3  x4  x5  x6  x7  x8  x9  x10 
End
